PROBLEM NAME: eil51_n9
KNAPSACK DATA TYPE: uncorrelated
DIMENSION: 9
NUMBER OF ITEMS: 40
CAPACITY OF KNAPSACK: 9914
MIN SPEED: 0.1
MAX SPEED: 1
RENTING RATIO: 14.60
EDGE_WEIGHT_TYPE: CEIL_2D
NODE_COORD_SECTION	(INDEX, X, Y):
1	17	63
2	31	62
3	36	16
4	52	41
5	27	23
6	62	63
7	32	22
8	5	6
9	56	37
ITEMS SECTION	(INDEX, PROFIT, WEIGHT, ASSIGNED NODE NUMBER):
1	979	192	2
2	928	539	2
3	861	131	2
4	848	454	2
5	814	834	2
6	813	354	6
7	792	68	6
8	790	280	6
9	789	762	6
10	786	810	6
11	773	586	4
12	753	519	4
13	752	4	4
14	714	698	4
15	710	872	4
16	682	337	9
17	652	486	9
18	647	883	9
19	605	134	9
20	575	685	9
21	559	50	3
22	488	354	3
23	477	851	3
24	393	17	3
25	386	893	3
26	374	13	7
27	373	110	7
28	364	139	7
29	355	415	7
30	353	938	7
31	264	58	5
32	245	675	5
33	242	954	5
34	234	355	5
35	229	211	5
36	225	696	8
37	112	139	8
38	111	936	8
39	70	246	8
40	50	498	8
